peakDumbCharging = 22200; 
Machine = anon_enum(16); 
machineSpeed = [3700,3700,3700,3700,3700,3700,3700,3700,3700,3700,3700,3700,3700,3700,3700,3700]; 
machineLoad = [3700,3700,3700,3700,3700,3700,3700,3700,3700,3700,3700,3700,3700,3700,3700,3700]; 
Car = anon_enum(40); 
demandCar = [920,3560,21920,24680,13920,3600,6360,3720,6560,11720,7280,6840,8520,4320,10000,2880,13040,4360,9520,8600,10400,3880,6360,1640,2120,14160,3360,2720,4440,15760,6560,34160,8600,18800,7280,8400,46680,10400,24800,14240]; 
arrivalCar = [80,75,74,72,71,70,69,69,69,68,68,65,65,64,63,62,62,61,61,61,56,55,55,54,54,53,49,46,45,45,43,42,41,40,39,39,39,36,30,30]; 
departureCar = [81,78,83,81,80,72,72,71,72,73,71,70,70,67,70,65,69,64,66,66,62,58,59,56,56,60,52,50,49,54,48,63,47,50,45,45,57,40,45,35]; 
